1743610
9,37,26,38,41,72,75,57,86,27,69,70,8,55,73,87,21,74,92,30,103,23,15,53,100,54,58,102,91,11,104,22,64,24,90,45,5,35,1,82,98,101,34,52,29,46,51,84,59,2,81,32,95,61,85,43,6,56,105,7,12,28,36,71,47,14,39,31,49,89,97,62,106,108,19,68,40,50,88,60,33,93,99,18,76,96,65,42,78,13,17,80,48,4,67,79,44,20,63,25,94,107,16,83,3,109,10,66,77